<number of tasks>
50

<cycle time>
1000

<order strength>
0.896


<task times>
1 299
2 401
3 355
4 549
5 620
6 302
7 113
8 96
9 167
10 163
11 356
12 80
13 584
14 91
15 231
16 184
17 84
18 89
19 231
20 195
21 485
22 179
23 39
24 155
25 366
26 133
27 184
28 427
29 133
30 172
31 292
32 141
33 288
34 498
35 208
36 163
37 30
38 355
39 268
40 442
41 30
42 319
43 175
44 84
45 424
46 391
47 70
48 456
49 27
50 209

<precedence relations>
1,3
1,4
1,5
2,3
2,4
2,5
3,6
3,7
4,6
4,7
5,6
5,7
6,8
6,9
7,8
7,9
8,10
9,10
10,11
10,12
10,13
10,14
11,15
11,16
12,15
12,16
13,15
13,16
14,15
14,16
15,17
15,18
15,19
16,17
16,18
16,19
17,20
17,21
18,20
18,21
19,20
19,21
20,22
20,23
20,24
21,22
21,23
21,24
22,25
22,26
22,27
23,25
23,26
23,27
24,25
24,26
24,27
25,28
25,29
25,30
26,30
26,31
27,28
27,29
27,30
28,32
29,33
29,36
30,32
30,33
31,37
31,41
32,34
32,35
32,36
32,37
33,34
34,41
34,42
35,40
36,39
36,40
36,41
37,38
37,39
37,40
38,42
39,42
39,44
40,43
41,43
42,45
43,46
44,45
44,47
45,48
46,50
47,49

<end>
